Clp0006I 0  Obj 0 Primal inf 1999.9998 (2000) Dual inf 27504845 (1000000)
Clp0006I 200  Obj -22071231 Primal inf 1608953 (2000)
Clp0006I 400  Obj -16585571 Primal inf 1213889 (2000)
Clp0006I 600  Obj -11099209 Primal inf 819922 (2000)
Clp0006I 800  Obj -5610552 Primal inf 430411 (2000)
Clp0006I 1000  Obj -126014 Primal inf 65694 (1997)
Clp0006I 1200  Obj -62843 Primal inf 71519 (1996)
Clp0006I 1332  Obj -62843 Primal inf 71156 (1997)
Clp0006I 1458  Obj -62843 Primal inf 69858 (1995)
Clp0006I 1572  Obj -62843 Primal inf 74557 (1994)
Clp0006I 1701  Obj -62843 Primal inf 213856 (1993)
Clp0006I 1818  Obj -62843 Primal inf 388147 (1990)
Clp0006I 1944  Obj -62843 Primal inf 304751 (1989)
Clp0006I 2075  Obj -62843 Primal inf 414830 (1991)
Clp0006I 2213  Obj -62843 Primal inf 363554 (1988)
Clp0006I 2348  Obj -62843 Primal inf 258839 (1985)
Clp0006I 2489  Obj -62843 Primal inf 370212 (1984)
Clp0006I 2624  Obj -62843 Primal inf 280362 (1985)
Clp0006I 2764  Obj -62843 Primal inf 382021 (1986)
Clp0006I 2907  Obj -62843 Primal inf 351705 (1986)
Clp0006I 3054  Obj -62843 Primal inf 235715 (1987)
Clp0006I 3202  Obj -62843 Primal inf 382583 (1989)
Clp0006I 3348  Obj -62843 Primal inf 227167 (1990)
Clp0006I 3498  Obj -62843 Primal inf 236839 (1989)
Clp0006I 3659  Obj -62843 Primal inf 370562 (1986)
Clp0006I 3803  Obj -62843 Primal inf 395525 (1984)
Clp0006I 3963  Obj -62843 Primal inf 271902 (1984)
Clp0006I 4124  Obj -62843 Primal inf 371275 (1985)
Clp0006I 4285  Obj -62843 Primal inf 378947 (1982)
Clp0006I 4442  Obj -62843 Primal inf 321845 (1982)
Clp0006I 4595  Obj -62843 Primal inf 393766 (1983)
Clp0006I 4739  Obj -62843 Primal inf 223985 (1984)
Clp0006I 4875  Obj -62843 Primal inf 360153 (1982)
Clp0006I 4995  Obj -62843 Primal inf 385384 (1983)
Clp0006I 5130  Obj -62843 Primal inf 289313 (1985)
Clp0006I 5251  Obj -62843 Primal inf 439999 (1987)
Clp0006I 5386  Obj -62843 Primal inf 311698 (1984)
Clp0006I 5529  Obj -62843 Primal inf 456869 (1987)
Clp0006I 5653  Obj -62843 Primal inf 260982 (1985)
Clp0006I 5799  Obj -62843 Primal inf 309408 (1984)
Clp0006I 5940  Obj -62843 Primal inf 315795 (1984)
Clp0006I 6094  Obj -62843 Primal inf 324270 (1986)
Clp0006I 6227  Obj -62843 Primal inf 331435 (1982)
Clp0006I 6378  Obj -62843 Primal inf 254404 (1982)
Clp0006I 6528  Obj -62843 Primal inf 295944 (1983)
Clp0006I 6665  Obj -62843 Primal inf 333074 (1983)
Clp0006I 6795  Obj -62843 Primal inf 286336 (1986)
Clp0006I 6951  Obj -62843 Primal inf 341256 (1985)
Clp0006I 7090  Obj -62843 Primal inf 327171 (1986)
Clp0006I 7231  Obj -62843 Primal inf 374515 (1988)
Clp0006I 7373  Obj -62843 Primal inf 261699 (1988)
Clp0006I 7521  Obj -62843 Primal inf 318334 (1983)
Clp0006I 7663  Obj -62843 Primal inf 289821 (1985)
Clp0006I 7809  Obj -62843 Primal inf 250560 (1984)
Clp0006I 7960  Obj -62843 Primal inf 282170 (1984)
Clp0006I 8090  Obj -62843 Primal inf 415950 (1984)
Clp0006I 8233  Obj -62843 Primal inf 222392 (1984)

TIME LIMIT REACHED!
real 1m24,072s user 1m23,497s sys 0m0,479s
